(set-logic HORN)
; KVARS

(declare-fun k_97 (Int Int Int Int Int Int Int Int Int Int) Bool)

(declare-fun k_95 (Int Int Int Int Int Int Int Int Int) Bool)

(declare-fun k_93 (Int Int Int Int Int Int Int Int) Bool)

(declare-fun k_91 (Int Int Int Int Int Int Int Int Int Int Int) Bool)

(declare-fun k_89 (Int Int Int Int Int Int Int Int Int Int Int Int Int) Bool)

(declare-fun k_87 (Int Int Int Int Int Int Int Int Int Int Int Int) Bool)

(declare-fun k_84 (Int Int Int Int Int Int Int Int Int Int Int) Bool)

(declare-fun k_80 (Int Int Int Int Int Int Int Int Int Int) Bool)

(declare-fun k_77 (Int Int Int Int Int Int Int Int Int) Bool)

(declare-fun k_74 (Int Int Int Int Int Int Int Int) Bool)

(declare-fun k_403 (Int Int Int Int Int Int Int Int Int Int Int Int Int) Bool)

(declare-fun k_396 (Int Int Int Int Int Int Int Int) Bool)

(declare-fun k_391 (Int Int Int Int Int Int Int Int Int Int Int Int Int) Bool)

(declare-fun k_388 (Int Int Int Int Int Int Int Int Int Int Int Int) Bool)

(declare-fun k_385 (Int Int Int Int Int Int Int Int Int Int Int) Bool)

(declare-fun k_379 (Int Int Int Int Int Int Int) Bool)

(declare-fun k_371 (Int Int Int Int Int Int Int Int Int) Bool)

(declare-fun k_369 (Int Int Int Int Int Int Int Int) Bool)

(declare-fun k_358 (Int Int Int Int Int Int Int Int Int) Bool)

(declare-fun k_356 (Int Int Int Int Int Int Int Int) Bool)

(declare-fun k_348 (Int Int Int Int Int Int Int Int Int) Bool)

(declare-fun k_346 (Int Int Int Int Int Int Int Int) Bool)

(declare-fun k_343 (Int Int Int Int Int Int Int Int Int) Bool)

(declare-fun k_341 (Int Int Int Int Int Int Int Int) Bool)

(declare-fun k_338 (Int Int Int Int Int Int Int Int Int) Bool)

(declare-fun k_336 (Int Int Int Int Int Int Int Int) Bool)

(declare-fun k_326 (Int Int Int Int Int Int Int Int Int Int Int) Bool)

(declare-fun k_322 (Int Int Int Int Int Int Int Int Int) Bool)

(declare-fun k_319 (Int Int Int Int Int Int Int Int) Bool)

(declare-fun k_308 (Int Int Int Int Int Int Int Int Int Int Int) Bool)

(declare-fun k_304 (Int Int Int Int Int Int Int Int Int) Bool)

(declare-fun k_301 (Int Int Int Int Int Int Int Int) Bool)

(declare-fun k_293 (Int Int Int Int Int Int Int Int Int) Bool)

(declare-fun k_291 (Int Int Int Int Int Int Int Int) Bool)

(declare-fun k_288 (Int Int Int Int Int Int Int Int Int) Bool)

(declare-fun k_286 (Int Int Int Int Int Int Int Int) Bool)

(declare-fun k_283 (Int Int Int Int Int Int Int Int Int) Bool)

(declare-fun k_281 (Int Int Int Int Int Int Int Int) Bool)

(declare-fun k_279 (Int Int Int Int Int Int Int Int Int) Bool)

(declare-fun k_277 (Int Int Int Int Int Int Int Int) Bool)

(declare-fun k_275 (Int Int Int Int Int Int Int Int) Bool)

(declare-fun k_272 (Int Int Int Int Int Int Int Int Int) Bool)

(declare-fun k_270 (Int Int Int Int Int Int Int Int) Bool)

(declare-fun k_267 (Int Int Int Int Int Int Int Int Int Int) Bool)

(declare-fun k_265 (Int Int Int Int Int Int Int Int Int) Bool)

(declare-fun k_262 (Int Int Int Int Int Int Int Int Int Int) Bool)

(declare-fun k_260 (Int Int Int Int Int Int Int Int Int) Bool)

(declare-fun k_252 (Int Int Int Int Int Int Int Int Int Int Int) Bool)

(declare-fun k_250 (Int Int Int Int Int Int Int Int Int Int Int Int) Bool)

(declare-fun k_245 (Int Int Int Int Int Int Int Int Int) Bool)

(declare-fun k_243 (Int Int Int Int Int Int Int Int Int) Bool)

(declare-fun k_240 (Int Int Int Int Int Int Int Int) Bool)

(declare-fun k_237 (Int Int Int Int Int Int Int) Bool)

(declare-fun k_228 (Int Int Int Int Int Int Int Int Int Int Int Int Int Int Int) Bool)

(declare-fun k_225 (Int Int Int Int Int Int Int Int Int Int Int Int Int Int) Bool)

(declare-fun k_223 (Int Int Int Int Int Int Int Int Int Int Int Int Int Int Int) Bool)

(declare-fun k_218 (Int Int Int Int Int Int Int Int Int Int Int Int) Bool)

(declare-fun k_214 (Int Int Int Int Int Int Int Int Int Int) Bool)

(declare-fun k_211 (Int Int Int Int Int Int Int Int Int) Bool)

(declare-fun k_204 (Int Int Int Int Int Int Int Int Int Int) Bool)

(declare-fun k_202 (Int Int Int Int Int Int Int Int Int) Bool)

(declare-fun k_199 (Int Int Int Int Int Int Int Int Int Int) Bool)

(declare-fun k_197 (Int Int Int Int Int Int Int Int Int) Bool)

(declare-fun k_195 (Int Int Int Int Int Int Int Int Int Int) Bool)

(declare-fun k_193 (Int Int Int Int Int Int Int Int Int) Bool)

(declare-fun k_186 (Int Int Int Int Int Int Int Int Int Int Int Int) Bool)

(declare-fun k_181 (Int Int Int Int Int Int Int Int Int Int) Bool)

(declare-fun k_178 (Int Int Int Int Int Int Int Int Int) Bool)

(declare-fun k_175 (Int Int Int Int Int Int Int Int) Bool)

(declare-fun k_170 (Int Int Int Int Int Int Int Int) Bool)

(declare-fun k_168 (Int Int Int Int Int Int Int Int Int Int Int Int Int Int Int Int Int) Bool)

(declare-fun k_160 (Int Int Int Int Int Int Int Int Int Int Int Int Int) Bool)

(declare-fun k_158 (Int Int Int Int Int Int Int Int Int Int Int Int Int Int) Bool)

(declare-fun k_153 (Int Int Int Int Int Int Int Int Int Int Int) Bool)

(declare-fun k_151 (Int Int Int Int Int Int Int Int Int Int Int) Bool)

(declare-fun k_148 (Int Int Int Int Int Int Int Int Int Int Int Int Int) Bool)

(declare-fun k_146 (Int Int Int Int Int Int Int Int Int Int Int Int) Bool)

(declare-fun k_143 (Int Int Int Int Int Int Int Int Int Int Int) Bool)

(declare-fun k_139 (Int Int Int Int Int Int Int Int Int Int) Bool)

(declare-fun k_136 (Int Int Int Int Int Int Int Int Int) Bool)

(declare-fun k_133 (Int Int Int Int Int Int Int Int) Bool)

(declare-fun k_127 (Int Int Int Int Int Int Int Int Int Int Int) Bool)

(declare-fun k_125 (Int Int Int Int Int Int Int Int Int Int Int Int Int) Bool)

(declare-fun k_123 (Int Int Int Int Int Int Int Int Int Int Int Int) Bool)

(declare-fun k_120 (Int Int Int Int Int Int Int Int Int Int Int) Bool)

(declare-fun k_116 (Int Int Int Int Int Int Int Int Int Int) Bool)

(declare-fun k_113 (Int Int Int Int Int Int Int Int Int) Bool)

(declare-fun k_110 (Int Int Int Int Int Int Int Int) Bool)

(declare-fun k_107 (Int Int Int Int Int Int Int Int Int Int Int) Bool)

(declare-fun k_105 (Int Int Int Int Int Int Int Int Int Int Int Int Int) Bool)

(declare-fun k_103 (Int Int Int Int Int Int Int Int Int Int Int Int) Bool)

(declare-fun k_100 (Int Int Int Int Int Int Int Int Int Int Int) Bool)

; CONSTRAINTS

; cid = 49
(assert (forall ((EQ_6U Int) 
(False_68 Int) (GT_6W Int) (LT_6S Int) (Prop (Array Int Bool)) (True_6u Int) 
(VV_F49 Int) (cmp (Array Int Int)) (lq_anf__dOI Int) (lq_anf__dOJ Int) 
(realWorld__0f Int) (x_aLx Int) 
(y_aLy Int)) 
 (=> (and (k_237 EQ_6U False_68 GT_6W LT_6S True_6u x_aLx realWorld__0f) (and (k_240 EQ_6U False_68 GT_6W LT_6S True_6u y_aLy realWorld__0f x_aLx) (and (= (select cmp EQ_6U) EQ_6U) (and (not (select Prop False_68)) (and (= (select cmp GT_6W) GT_6W) (and (= (select cmp LT_6S) LT_6S) (and (select Prop True_6u) (and (= (select Prop lq_anf__dOI) (< x_aLx y_aLy)) (and (= (select Prop lq_anf__dOJ) (< x_aLx y_aLy)) (and (= lq_anf__dOJ lq_anf__dOI) (and (not (select Prop lq_anf__dOJ)) (and (not (select Prop lq_anf__dOJ)) (and (k_237 EQ_6U False_68 GT_6W LT_6S True_6u VV_F49 realWorld__0f) (and (= VV_F49 x_aLx) true)))))))))))))) (k_243 EQ_6U False_68 GT_6W LT_6S True_6u VV_F49 realWorld__0f x_aLx y_aLy)))
)


; cid = 48
(assert (forall ((EQ_6U Int) (False_68 Int) (GT_6W Int) 
(LT_6S Int) (Prop (Array Int Bool)) (True_6u Int) (VV_F48 Int) 
(cmp (Array Int Int)) (lq_anf__dOI Int) (lq_anf__dOJ Int) 
(realWorld__0f Int) (x_aLx Int) 
(y_aLy Int)) 
 (=> (and (k_237 EQ_6U False_68 GT_6W LT_6S True_6u x_aLx realWorld__0f) (and (k_240 EQ_6U False_68 GT_6W LT_6S True_6u y_aLy realWorld__0f x_aLx) (and (= (select cmp EQ_6U) EQ_6U) (and (not (select Prop False_68)) (and (= (select cmp GT_6W) GT_6W) (and (= (select cmp LT_6S) LT_6S) (and (select Prop True_6u) (and (= (select Prop lq_anf__dOI) (< x_aLx y_aLy)) (and (= (select Prop lq_anf__dOJ) (< x_aLx y_aLy)) (and (= lq_anf__dOJ lq_anf__dOI) (and (select Prop lq_anf__dOJ) (and (select Prop lq_anf__dOJ) (and (k_240 EQ_6U False_68 GT_6W LT_6S True_6u VV_F48 realWorld__0f x_aLx) (and (= VV_F48 y_aLy) true)))))))))))))) (k_243 EQ_6U False_68 GT_6W LT_6S True_6u VV_F48 realWorld__0f x_aLx y_aLy)))
)


; cid = 14
(assert (forall ((EQ_6U Int) (False_68 Int) (GT_6W Int) 
(LT_6S Int) (Prop (Array Int Bool)) (True_6u Int) (VV_F14 Int) 
(cmp (Array Int Int)) (lq_anf__dP2 Int) (lq_anf__dP3 Int) 
(realWorld__0f Int) 
(x_aLI Int)) 
 (=> (and (= (select cmp EQ_6U) EQ_6U) (and (not (select Prop False_68)) (and (= (select cmp GT_6W) GT_6W) (and (= (select cmp LT_6S) LT_6S) (and (select Prop True_6u) (and (= lq_anf__dP2 1) (and (= lq_anf__dP3 0) (and (= VV_F14 x_aLI) true)))))))) (k_237 EQ_6U False_68 GT_6W LT_6S True_6u VV_F14 realWorld__0f)))
)


; cid = 14
(assert (forall ((EQ_6U Int) (False_68 Int) (GT_6W Int) 
(LT_6S Int) (Prop (Array Int Bool)) (True_6u Int) (VV_F14 Int) 
(cmp (Array Int Int)) (lq_anf__dP2 Int) (lq_anf__dP3 Int) 
(realWorld__0f Int) (x_aLI Int) 
(y_aLJ Int)) 
 (=> (and (= (select cmp EQ_6U) EQ_6U) (and (not (select Prop False_68)) (and (= (select cmp GT_6W) GT_6W) (and (= (select cmp LT_6S) LT_6S) (and (select Prop True_6u) (and (= lq_anf__dP2 1) (and (= lq_anf__dP3 0) (and (= VV_F14 x_aLI) true)))))))) (k_385 EQ_6U False_68 GT_6W LT_6S True_6u VV_F14 lq_anf__dP2 lq_anf__dP3 realWorld__0f x_aLI y_aLJ)))
)


; cid = 13
(assert (forall ((EQ_6U Int) (False_68 Int) (GT_6W Int) 
(LT_6S Int) (Prop (Array Int Bool)) (True_6u Int) (VV_F13 Int) 
(cmp (Array Int Int)) (lq_anf__dP2 Int) (lq_anf__dP3 Int) 
(realWorld__0f Int) (x_aLI Int) 
(y_aLJ Int)) 
 (=> (and (= (select cmp EQ_6U) EQ_6U) (and (not (select Prop False_68)) (and (= (select cmp GT_6W) GT_6W) (and (= (select cmp LT_6S) LT_6S) (and (select Prop True_6u) (and (= lq_anf__dP2 1) (and (= lq_anf__dP3 0) (and (= VV_F13 y_aLJ) true)))))))) (k_240 EQ_6U False_68 GT_6W LT_6S True_6u VV_F13 realWorld__0f x_aLI)))
)


; cid = 13
(assert (forall ((EQ_6U Int) (False_68 Int) (GT_6W Int) 
(LT_6S Int) (Prop (Array Int Bool)) (True_6u Int) (VV_F13 Int) 
(cmp (Array Int Int)) (lq_anf__dP2 Int) (lq_anf__dP3 Int) 
(realWorld__0f Int) (x_aLI Int) 
(y_aLJ Int)) 
 (=> (and (= (select cmp EQ_6U) EQ_6U) (and (not (select Prop False_68)) (and (= (select cmp GT_6W) GT_6W) (and (= (select cmp LT_6S) LT_6S) (and (select Prop True_6u) (and (= lq_anf__dP2 1) (and (= lq_anf__dP3 0) (and (= VV_F13 y_aLJ) true)))))))) (k_385 EQ_6U False_68 GT_6W LT_6S True_6u VV_F13 lq_anf__dP2 lq_anf__dP3 realWorld__0f x_aLI y_aLJ)))
)


; cid = 8
(assert (forall ((EQ_6U Int) (False_68 Int) (GT_6W Int) 
(LT_6S Int) (Prop (Array Int Bool)) (True_6u Int) (VV_F8 Int) 
(cmp (Array Int Int)) (lq_anf__dP2 Int) (lq_anf__dP3 Int) (lq_anf__dP4 Int) 
(lq_anf__dP5 Int) (lq_anf__dP6 Int) (realWorld__0f Int) (x_aLI Int) 
(y_aLJ Int) 
(z_aLK Int)) 
 (=> (and (not (select Prop VV_F8)) (and (k_385 EQ_6U False_68 GT_6W LT_6S True_6u z_aLK lq_anf__dP2 lq_anf__dP3 realWorld__0f x_aLI y_aLJ) (and (k_243 EQ_6U False_68 GT_6W LT_6S True_6u z_aLK realWorld__0f x_aLI y_aLJ) (and (= (select cmp EQ_6U) EQ_6U) (and (not (select Prop False_68)) (and (= (select cmp GT_6W) GT_6W) (and (= (select cmp LT_6S) LT_6S) (and (select Prop True_6u) (and (= lq_anf__dP2 1) (and (= lq_anf__dP3 0) (and (= (select Prop lq_anf__dP4) (>= z_aLK x_aLI)) (and (= (select Prop lq_anf__dP5) (>= z_aLK y_aLJ)) (and (= (select Prop lq_anf__dP6) (and (select Prop lq_anf__dP4) (and (select Prop lq_anf__dP5) true))) (and (= (select Prop VV_F8) (and (select Prop lq_anf__dP4) (and (select Prop lq_anf__dP5) true))) (and (= VV_F8 lq_anf__dP6) true))))))))))))))) false))
)
